# Objective value = 1254
y 1254
x1 1063
r1 1
y1 841
x2 2679
r2 1
y2 0
x3 222
r3 1
y3 420
x4 2132
r4 1
y4 743
x5 212
r5 1
y5 719
x6 1807
r6 1
y6 737
x7 94
r7 0
y7 0
x8 2485
r8 1
y8 712
x9 513
r9 1
y9 1043
x10 2455
r10 1
y10 942
x11 300
r11 0
y11 0
x12 1386
r12 1
y12 113
x13 0
r13 1
y13 455
x14 2684
r14 0
y14 931
x15 536
r15 1
y15 623
x16 1714
r16 1
y16 0
x17 740
r17 0
y17 0
x18 513
r18 1
y18 0
x19 1931
r19 1
y19 626
x20 0
r20 0
y20 670
x21 0
r21 0
y21 934
x22 1500
r22 0
y22 416
x23 2485
r23 0
y23 334
x24 2456
r24 1
y24 0
x25 2239
r25 0
y25 0
x26 2475
r26 1
y26 116
x27 2259
r27 1
y27 424
x28 536
r28 1
y28 413
x29 1386
r29 1
y29 0
x30 0
r30 0
y30 226
x31 1187
r31 0
y31 417
x32 962
r32 1
y32 0
x33 1283
r33 1
y33 741
x34 974
r34 0
y34 417
p12 0
q12 0
p13 1
q13 0
p14 0
q14 0
p15 1
q15 0
p16 0
q16 0
p17 1
q17 0
p18 0
q18 0
p19 1
q19 0
p110 0
q110 0
p111 1
q111 0
p112 0
q112 0
p113 1
q113 0
p114 0
q114 0
p115 1
q115 0
p116 0
q116 0
p117 1
q117 0
p118 1
q118 1
p119 0
q119 0
p120 1
q120 0
p121 1
q121 0
p122 0
q122 0
p123 0
q123 0
p124 1
q124 1
p125 0
q125 0
p126 0
q126 0
p127 0
q127 0
p128 1
q128 0
p129 1
q129 1
p130 1
q130 0
p131 1
q131 1
p132 1
q132 1
p133 0
q133 0
p134 1
q134 1
p23 1
q23 0
p24 1
q24 0
p25 0
q25 1
p26 0
q26 1
p27 1
q27 0
p28 0
q28 1
p29 1
q29 0
p210 0
q210 1
p211 1
q211 0
p212 1
q212 0
p213 1
q213 0
p214 0
q214 1
p215 1
q215 0
p216 1
q216 0
p217 1
q217 0
p218 1
q218 0
p219 1
q219 0
p220 1
q220 0
p221 1
q221 0
p222 0
q222 1
p223 0
q223 1
p224 1
q224 0
p225 1
q225 0
p226 0
q226 1
p227 0
q227 1
p228 1
q228 0
p229 1
q229 0
p230 1
q230 0
p231 1
q231 0
p232 1
q232 0
p233 1
q233 0
p234 1
q234 0
p34 0
q34 0
p35 0
q35 1
p36 0
q36 0
p37 1
q37 0
p38 0
q38 0
p39 0
q39 1
p310 0
q310 0
p311 1
q311 1
p312 0
q312 0
p313 1
q313 0
p314 0
q314 0
p315 0
q315 0
p316 0
q316 0
p317 0
q317 0
p318 1
q318 1
p319 0
q319 0
p320 1
q320 0
p321 0
q321 1
p322 0
q322 0
p323 0
q323 0
p324 0
q324 0
p325 0
q325 0
p326 0
q326 0
p327 0
q327 0
p328 0
q328 0
p329 0
q329 0
p330 1
q330 0
p331 0
q331 0
p332 0
q332 0
p333 0
q333 0
p334 0
q334 0
p45 1
q45 0
p46 1
q46 0
p47 1
q47 0
p48 0
q48 0
p49 1
q49 0
p410 0
q410 0
p411 1
q411 0
p412 1
q412 0
p413 1
q413 0
p414 0
q414 0
p415 1
q415 0
p416 1
q416 1
p417 1
q417 1
p418 1
q418 0
p419 1
q419 1
p420 1
q420 0
p421 1
q421 0
p422 1
q422 0
p423 0
q423 0
p424 0
q424 0
p425 1
q425 1
p426 1
q426 1
p427 1
q427 1
p428 1
q428 0
p429 1
q429 0
p430 1
q430 0
p431 1
q431 0
p432 1
q432 1
p433 1
q433 0
p434 1
q434 1
p56 0
q56 0
p57 1
q57 0
p58 0
q58 0
p59 0
q59 1
p510 0
q510 0
p511 1
q511 1
p512 0
q512 0
p513 1
q513 1
p514 0
q514 0
p515 0
q515 0
p516 1
q516 1
p517 0
q517 0
p518 1
q518 1
p519 0
q519 0
p520 1
q520 0
p521 0
q521 1
p522 0
q522 0
p523 0
q523 0
p524 0
q524 0
p525 0
q525 0
p526 0
q526 0
p527 0
q527 0
p528 0
q528 0
p529 0
q529 0
p530 1
q530 1
p531 0
q531 0
p532 1
q532 1
p533 0
q533 0
p534 0
q534 0
p67 1
q67 0
p68 0
q68 0
p69 1
q69 0
p610 0
q610 0
p611 1
q611 0
p612 1
q612 1
p613 1
q613 0
p614 0
q614 0
p615 1
q615 0
p616 1
q616 1
p617 1
q617 0
p618 1
q618 0
p619 1
q619 1
p620 1
q620 0
p621 1
q621 0
p622 1
q622 1
p623 0
q623 0
p624 1
q624 1
p625 1
q625 1
p626 1
q626 1
p627 0
q627 0
p628 1
q628 0
p629 1
q629 1
p630 1
q630 0
p631 1
q631 0
p632 1
q632 1
p633 1
q633 0
p634 1
q634 0
p78 0
q78 0
p79 0
q79 0
p710 0
q710 0
p711 0
q711 0
p712 0
q712 0
p713 0
q713 1
p714 0
q714 0
p715 0
q715 0
p716 0
q716 0
p717 0
q717 0
p718 0
q718 0
p719 0
q719 0
p720 0
q720 1
p721 0
q721 1
p722 0
q722 0
p723 0
q723 0
p724 0
q724 0
p725 0
q725 0
p726 0
q726 0
p727 0
q727 0
p728 0
q728 0
p729 0
q729 0
p730 0
q730 1
p731 0
q731 0
p732 0
q732 0
p733 0
q733 0
p734 0
q734 0
p89 1
q89 0
p810 0
q810 1
p811 1
q811 0
p812 1
q812 0
p813 1
q813 0
p814 0
q814 1
p815 1
q815 0
p816 1
q816 1
p817 1
q817 0
p818 1
q818 0
p819 1
q819 0
p820 1
q820 0
p821 1
q821 0
p822 1
q822 0
p823 1
q823 1
p824 1
q824 1
p825 1
q825 0
p826 1
q826 1
p827 1
q827 0
p828 1
q828 0
p829 1
q829 0
p830 1
q830 0
p831 1
q831 0
p832 1
q832 0
p833 1
q833 0
p834 1
q834 0
p910 0
q910 0
p911 1
q911 1
p912 0
q912 0
p913 1
q913 1
p914 0
q914 0
p915 1
q915 1
p916 0
q916 0
p917 1
q917 1
p918 1
q918 1
p919 0
q919 0
p920 1
q920 0
p921 1
q921 0
p922 0
q922 0
p923 0
q923 0
p924 0
q924 0
p925 0
q925 0
p926 0
q926 0
p927 0
q927 0
p928 1
q928 1
p929 1
q929 1
p930 1
q930 1
p931 1
q931 1
p932 1
q932 1
p933 0
q933 0
p934 1
q934 1
p1011 1
q1011 0
p1012 1
q1012 0
p1013 1
q1013 0
p1014 0
q1014 0
p1015 1
q1015 0
p1016 1
q1016 0
p1017 1
q1017 0
p1018 1
q1018 0
p1019 1
q1019 0
p1020 1
q1020 0
p1021 1
q1021 0
p1022 1
q1022 0
p1023 1
q1023 1
p1024 1
q1024 1
p1025 1
q1025 1
p1026 1
q1026 1
p1027 1
q1027 1
p1028 1
q1028 0
p1029 1
q1029 0
p1030 1
q1030 0
p1031 1
q1031 0
p1032 1
q1032 0
p1033 1
q1033 0
p1034 1
q1034 0
p1112 0
q1112 0
p1113 1
q1113 0
p1114 0
q1114 0
p1115 0
q1115 1
p1116 0
q1116 0
p1117 0
q1117 0
p1118 0
q1118 0
p1119 0
q1119 0
p1120 1
q1120 0
p1121 0
q1121 1
p1122 0
q1122 0
p1123 0
q1123 0
p1124 0
q1124 0
p1125 0
q1125 0
p1126 0
q1126 0
p1127 0
q1127 0
p1128 0
q1128 0
p1129 0
q1129 0
p1130 1
q1130 0
p1131 0
q1131 0
p1132 0
q1132 0
p1133 0
q1133 0
p1134 0
q1134 0
p1213 1
q1213 0
p1214 0
q1214 1
p1215 1
q1215 0
p1216 0
q1216 0
p1217 1
q1217 0
p1218 1
q1218 0
p1219 0
q1219 1
p1220 1
q1220 0
p1221 1
q1221 0
p1222 0
q1222 1
p1223 0
q1223 0
p1224 0
q1224 0
p1225 0
q1225 0
p1226 0
q1226 0
p1227 0
q1227 0
p1228 1
q1228 0
p1229 1
q1229 1
p1230 1
q1230 0
p1231 0
q1231 1
p1232 1
q1232 0
p1233 0
q1233 1
p1234 1
q1234 0
p1314 0
q1314 0
p1315 0
q1315 0
p1316 0
q1316 0
p1317 0
q1317 0
p1318 0
q1318 0
p1319 0
q1319 0
p1320 0
q1320 1
p1321 0
q1321 1
p1322 0
q1322 0
p1323 0
q1323 0
p1324 0
q1324 0
p1325 0
q1325 0
p1326 0
q1326 0
p1327 0
q1327 0
p1328 0
q1328 0
p1329 0
q1329 0
p1330 1
q1330 1
p1331 0
q1331 0
p1332 0
q1332 0
p1333 0
q1333 0
p1334 0
q1334 0
p1415 1
q1415 0
p1416 1
q1416 0
p1417 1
q1417 0
p1418 1
q1418 0
p1419 1
q1419 0
p1420 1
q1420 0
p1421 1
q1421 0
p1422 1
q1422 0
p1423 1
q1423 1
p1424 1
q1424 1
p1425 1
q1425 0
p1426 1
q1426 1
p1427 1
q1427 1
p1428 1
q1428 0
p1429 1
q1429 0
p1430 1
q1430 0
p1431 1
q1431 0
p1432 1
q1432 0
p1433 1
q1433 0
p1434 1
q1434 1
p1516 0
q1516 0
p1517 1
q1517 1
p1518 1
q1518 1
p1519 0
q1519 0
p1520 1
q1520 0
p1521 1
q1521 0
p1522 0
q1522 0
p1523 0
q1523 0
p1524 0
q1524 0
p1525 0
q1525 0
p1526 0
q1526 0
p1527 0
q1527 0
p1528 1
q1528 1
p1529 0
q1529 0
p1530 1
q1530 0
p1531 0
q1531 0
p1532 1
q1532 1
p1533 0
q1533 0
p1534 0
q1534 0
p1617 1
q1617 0
p1618 1
q1618 0
p1619 0
q1619 1
p1620 1
q1620 0
p1621 0
q1621 1
p1622 1
q1622 0
p1623 0
q1623 0
p1624 0
q1624 0
p1625 0
q1625 0
p1626 0
q1626 0
p1627 0
q1627 0
p1628 1
q1628 0
p1629 1
q1629 0
p1630 1
q1630 0
p1631 1
q1631 0
p1632 1
q1632 0
p1633 0
q1633 1
p1634 1
q1634 0
p1718 1
q1718 0
p1719 0
q1719 0
p1720 1
q1720 0
p1721 0
q1721 1
p1722 0
q1722 0
p1723 0
q1723 0
p1724 0
q1724 0
p1725 0
q1725 0
p1726 0
q1726 0
p1727 0
q1727 0
p1728 0
q1728 1
p1729 0
q1729 0
p1730 1
q1730 0
p1731 0
q1731 0
p1732 0
q1732 0
p1733 0
q1733 1
p1734 0
q1734 1
p1819 0
q1819 0
p1820 1
q1820 0
p1821 1
q1821 0
p1822 0
q1822 0
p1823 0
q1823 0
p1824 0
q1824 0
p1825 0
q1825 0
p1826 0
q1826 0
p1827 0
q1827 0
p1828 0
q1828 1
p1829 0
q1829 0
p1830 1
q1830 0
p1831 0
q1831 0
p1832 0
q1832 0
p1833 0
q1833 0
p1834 0
q1834 0
p1920 1
q1920 0
p1921 1
q1921 0
p1922 1
q1922 0
p1923 0
q1923 0
p1924 0
q1924 0
p1925 1
q1925 1
p1926 1
q1926 1
p1927 0
q1927 0
p1928 1
q1928 0
p1929 1
q1929 1
p1930 1
q1930 0
p1931 1
q1931 0
p1932 1
q1932 0
p1933 1
q1933 0
p1934 1
q1934 0
p2021 0
q2021 1
p2022 0
q2022 0
p2023 0
q2023 0
p2024 0
q2024 0
p2025 0
q2025 0
p2026 0
q2026 0
p2027 0
q2027 0
p2028 0
q2028 0
p2029 0
q2029 0
p2030 1
q2030 1
p2031 0
q2031 0
p2032 0
q2032 0
p2033 0
q2033 0
p2034 0
q2034 0
p2122 0
q2122 0
p2123 0
q2123 0
p2124 1
q2124 1
p2125 0
q2125 0
p2126 0
q2126 0
p2127 0
q2127 0
p2128 0
q2128 0
p2129 1
q2129 1
p2130 1
q2130 1
p2131 0
q2131 0
p2132 0
q2132 0
p2133 0
q2133 0
p2134 0
q2134 0
p2223 0
q2223 0
p2224 1
q2224 1
p2225 0
q2225 0
p2226 0
q2226 0
p2227 0
q2227 0
p2228 1
q2228 0
p2229 1
q2229 1
p2230 1
q2230 0
p2231 1
q2231 0
p2232 1
q2232 1
p2233 0
q2233 1
p2234 1
q2234 0
p2324 1
q2324 1
p2325 1
q2325 0
p2326 1
q2326 1
p2327 1
q2327 0
p2328 1
q2328 0
p2329 1
q2329 0
p2330 1
q2330 0
p2331 1
q2331 0
p2332 1
q2332 0
p2333 1
q2333 0
p2334 1
q2334 0
p2425 1
q2425 0
p2426 0
q2426 1
p2427 0
q2427 1
p2428 0
q2428 1
p2429 1
q2429 0
p2430 1
q2430 0
p2431 1
q2431 0
p2432 1
q2432 0
p2433 0
q2433 1
p2434 1
q2434 0
p2526 0
q2526 0
p2527 0
q2527 1
p2528 1
q2528 0
p2529 1
q2529 0
p2530 1
q2530 0
p2531 1
q2531 0
p2532 1
q2532 0
p2533 0
q2533 1
p2534 1
q2534 0
p2627 0
q2627 1
p2628 1
q2628 0
p2629 1
q2629 0
p2630 1
q2630 0
p2631 1
q2631 0
p2632 1
q2632 0
p2633 0
q2633 1
p2634 1
q2634 0
p2728 1
q2728 0
p2729 1
q2729 0
p2730 1
q2730 0
p2731 1
q2731 0
p2732 1
q2732 0
p2733 1
q2733 0
p2734 1
q2734 0
p2829 1
q2829 1
p2830 1
q2830 0
p2831 0
q2831 0
p2832 1
q2832 1
p2833 0
q2833 0
p2834 0
q2834 0
p2930 1
q2930 0
p2931 0
q2931 1
p2932 1
q2932 0
p2933 0
q2933 1
p2934 0
q2934 1
p3031 0
q3031 0
p3032 0
q3032 0
p3033 0
q3033 0
p3034 0
q3034 0
p3132 1
q3132 1
p3133 0
q3133 1
p3134 1
q3134 0
p3233 0
q3233 1
p3234 0
q3234 1
p3334 1
q3334 1
